TCS_Benchmarks/redos_fix/snort1_output_distinct_2968_2967_1_0.txt
([^>]+)(\s*)
([^>]+)([tT][yY][pP][eE])(\s*)